presolving:
(round 1, fast)       420734 del vars, 418804 del conss, 0 add conss, 417 chg bounds, 168 chg sides, 0 chg coeffs, 0 upgd conss, 0 impls, 8576 clqs
(round 2, fast)       422054 del vars, 421311 del conss, 0 add conss, 417 chg bounds, 168 chg sides, 0 chg coeffs, 0 upgd conss, 0 impls, 8576 clqs
   (2.7s) running MILP presolver
   (2.8s) MILP presolver (2 rounds): 0 aggregations, 0 fixings, 0 bound changes
(round 3, exhaustive) 422056 del vars, 421845 del conss, 0 add conss, 417 chg bounds, 701 chg sides, 0 chg coeffs, 0 upgd conss, 0 impls, 8576 clqs
(round 4, exhaustive) 422056 del vars, 421845 del conss, 0 add conss, 417 chg bounds, 701 chg sides, 0 chg coeffs, 8085 upgd conss, 0 impls, 8576 clqs
(round 5, fast)       422577 del vars, 421845 del conss, 0 add conss, 417 chg bounds, 701 chg sides, 0 chg coeffs, 8085 upgd conss, 0 impls, 8576 clqs
(round 6, fast)       422577 del vars, 421845 del conss, 0 add conss, 417 chg bounds, 701 chg sides, 521 chg coeffs, 8085 upgd conss, 0 impls, 8618 clqs
   (2.9s) probing: 51/3927 (1.3%) - 0 fixings, 0 aggregations, 0 implications, 0 bound changes
   (2.9s) probing aborted: 50/50 successive totally useless probings
   (2.9s) symmetry computation started: requiring (bin +, int -, cont +), (fixed: bin -, int +, cont -)
   (2.9s) no symmetry present
presolving (7 rounds: 7 fast, 3 medium, 3 exhaustive):
 422637 deleted vars, 422289 deleted constraints, 0 added constraints, 417 tightened bounds, 0 added holes, 701 changed sides, 521 changed coefficients
 0 implications, 7641 cliques
presolved problem has 3867 variables (3867 bin, 0 int, 0 impl, 0 cont) and 7641 constraints
   7599 constraints of type <setppc>
     42 constraints of type <logicor>
Presolving Time: 2.00

 time | node  | left  |LP iter|LP it/n|mem/heur|mdpt |vars |cons |rows |cuts |sepa|confs|strbr|  dualbound   | primalbound  |  gap   | compl. 
p 3.3s|     1 |     0 |     0 |     - |  clique|   0 |3867 |7641 |7641 |   0 |  0 |   0 |   0 |-2.094376e+04 |-6.777905e+04 | 223.62%| unknown
  3.5s|     1 |     0 |   884 |     - |  1285M |   0 |3867 |7669 |7641 |   0 |  0 |  28 |   0 |-4.616929e+04 |-6.777905e+04 |  46.81%| unknown
r 3.5s|     1 |     0 |   884 |     - |rounding|   0 |3867 |7670 |7641 |   0 |  0 |  29 |   0 |-4.616929e+04 |-5.712913e+04 |  23.74%| unknown
i 3.5s|     1 |     0 |   884 |     - |  oneopt|   0 |3867 |7670 |7641 |   0 |  0 |  29 |   0 |-4.616929e+04 |-5.469874e+04 |  18.47%| unknown
  4.9s|     1 |     0 |   953 |     - |  1319M |   0 |3867 |7670 |7644 |   3 |  1 |  29 |   0 |-4.620978e+04 |-5.469874e+04 |  18.37%| unknown
  6.2s|     1 |     0 |  1156 |     - |  1325M |   0 |3867 |7670 |7654 |  13 |  2 |  29 |   0 |-4.633195e+04 |-5.469874e+04 |  18.06%| unknown
  7.4s|     1 |     0 |  1294 |     - |  1327M |   0 |3867 |7670 |7664 |  23 |  3 |  29 |   0 |-4.641113e+04 |-5.469874e+04 |  17.86%| unknown
  8.9s|     1 |     0 |  1421 |     - |  1335M |   0 |3867 |7670 |7670 |  29 |  4 |  29 |   0 |-4.647534e+04 |-5.469874e+04 |  17.69%| unknown
  9.2s|     1 |     0 |  1528 |     - |  1336M |   0 |3867 |7671 |7679 |  38 |  5 |  30 |   0 |-4.651064e+04 |-5.469874e+04 |  17.60%| unknown
  9.5s|     1 |     0 |  1589 |     - |  1337M |   0 |3867 |7671 |7687 |  46 |  6 |  30 |   0 |-4.655238e+04 |-5.469874e+04 |  17.50%| unknown
 10.9s|     1 |     0 |  1711 |     - |  1340M |   0 |3867 |7671 |7694 |  53 |  7 |  30 |   0 |-4.659394e+04 |-5.469874e+04 |  17.39%| unknown
 11.2s|     1 |     0 |  1862 |     - |  1341M |   0 |3867 |7671 |7702 |  61 |  8 |  30 |   0 |-4.663645e+04 |-5.469874e+04 |  17.29%| unknown
 11.6s|     1 |     0 |  1942 |     - |  1342M |   0 |3867 |7671 |7708 |  67 |  9 |  30 |   0 |-4.665456e+04 |-5.469874e+04 |  17.24%| unknown
 11.8s|     1 |     0 |  1981 |     - |  1342M |   0 |3867 |7671 |7713 |  72 | 10 |  30 |   0 |-4.666205e+04 |-5.469874e+04 |  17.22%| unknown
 11.9s|     1 |     0 |  2025 |     - |  1343M |   0 |3867 |7671 |7715 |  74 | 11 |  30 |   0 |-4.666685e+04 |-5.469874e+04 |  17.21%| unknown
 time | node  | left  |LP iter|LP it/n|mem/heur|mdpt |vars |cons |rows |cuts |sepa|confs|strbr|  dualbound   | primalbound  |  gap   | compl. 
 12.0s|     1 |     0 |  2087 |     - |  1344M |   0 |3867 |7672 |7718 |  77 | 12 |  31 |   0 |-4.667733e+04 |-5.469874e+04 |  17.18%| unknown
 12.0s|     1 |     0 |  2110 |     - |  1345M |   0 |3867 |7672 |7720 |  79 | 13 |  31 |   0 |-4.667928e+04 |-5.469874e+04 |  17.18%| unknown
 12.1s|     1 |     0 |  2173 |     - |  1346M |   0 |3867 |7672 |7723 |  82 | 14 |  31 |   0 |-4.668768e+04 |-5.469874e+04 |  17.16%| unknown
 12.2s|     1 |     0 |  2203 |     - |  1347M |   0 |3867 |7672 |7725 |  84 | 15 |  31 |   0 |-4.669096e+04 |-5.469874e+04 |  17.15%| unknown
 12.3s|     1 |     0 |  2234 |     - |  1348M |   0 |3867 |7672 |7724 |  86 | 16 |  31 |   0 |-4.669290e+04 |-5.469874e+04 |  17.15%| unknown
 12.3s|     1 |     0 |  2286 |     - |  1348M |   0 |3867 |7672 |7725 |  87 | 17 |  31 |   0 |-4.669559e+04 |-5.469874e+04 |  17.14%| unknown
 12.4s|     1 |     0 |  2329 |     - |  1348M |   0 |3867 |7672 |7727 |  89 | 18 |  31 |   0 |-4.669941e+04 |-5.469874e+04 |  17.13%| unknown
 12.5s|     1 |     0 |  2359 |     - |  1349M |   0 |3867 |7672 |7729 |  91 | 19 |  31 |   0 |-4.670103e+04 |-5.469874e+04 |  17.13%| unknown
 12.6s|     1 |     0 |  2388 |     - |  1350M |   0 |3867 |7672 |7732 |  94 | 20 |  31 |   0 |-4.670253e+04 |-5.469874e+04 |  17.12%| unknown
 12.6s|     1 |     0 |  2409 |     - |  1350M |   0 |3867 |7673 |7733 |  95 | 21 |  32 |   0 |-4.670270e+04 |-5.469874e+04 |  17.12%| unknown
 12.7s|     1 |     0 |  2428 |     - |  1350M |   0 |3867 |7673 |7734 |  99 | 23 |  32 |   0 |-4.670295e+04 |-5.469874e+04 |  17.12%| unknown
 12.7s|     1 |     0 |  2434 |     - |  1350M |   0 |3867 |7673 |7735 | 100 | 24 |  32 |   0 |-4.670296e+04 |-5.469874e+04 |  17.12%| unknown
 12.8s|     1 |     0 |  2452 |     - |  1350M |   0 |3867 |7673 |7739 | 104 | 25 |  32 |   0 |-4.670311e+04 |-5.469874e+04 |  17.12%| unknown
 12.9s|     1 |     0 |  2456 |     - |  1350M |   0 |3867 |7673 |7742 | 107 | 27 |  32 |   0 |-4.670315e+04 |-5.469874e+04 |  17.12%| unknown
d13.3s|     1 |     0 |  4077 |     - |farkasdi|   0 |3867 |7672 |7742 |   0 | 28 |  32 |   0 |-4.670315e+04 |-4.783544e+04 |   2.42%| unknown
 time | node  | left  |LP iter|LP it/n|mem/heur|mdpt |vars |cons |rows |cuts |sepa|confs|strbr|  dualbound   | primalbound  |  gap   | compl. 
L14.5s|     1 |     0 | 10364 |     - |    rens|   0 |3867 |7671 |7742 | 107 | 28 |  32 |   0 |-4.670315e+04 |-4.746796e+04 |   1.64%| unknown
 14.6s|     1 |     0 | 10364 |     - |  1374M |   0 |3867 |7671 |7742 | 107 | 28 |  32 |   0 |-4.670315e+04 |-4.746796e+04 |   1.64%| unknown
 14.6s|     1 |     0 | 10364 |     - |  1380M |   0 |3867 |7671 |6986 | 107 | 28 |  32 |   0 |-4.670315e+04 |-4.746796e+04 |   1.64%| unknown
 14.7s|     1 |     0 | 10364 |     - |  1380M |   0 |3867 |6916 |6986 | 107 | 29 |  32 |   0 |-4.670315e+04 |-4.746796e+04 |   1.64%| unknown
 16.3s|     1 |     2 | 10364 |     - |  1380M |   0 |3867 |6912 |6986 | 107 | 30 |  32 |  19 |-4.675208e+04 |-4.746796e+04 |   1.53%| unknown
(run 1, node 1) restarting after 320 global fixings of integer variables

(restart) converted 101 cuts from the global cut pool into linear constraints

presolving:
(round 1, fast)       320 del vars, 1 del conss, 0 add conss, 0 chg bounds, 0 chg sides, 38 chg coeffs, 0 upgd conss, 0 impls, 6966 clqs
   (17.0s) running MILP presolver
   (17.0s) MILP presolver found nothing
(round 2, exhaustive) 321 del vars, 2 del conss, 0 add conss, 0 chg bounds, 0 chg sides, 38 chg coeffs, 101 upgd conss, 0 impls, 6966 clqs
presolving (3 rounds: 3 fast, 2 medium, 2 exhaustive):
 321 deleted vars, 2 deleted constraints, 0 added constraints, 0 tightened bounds, 0 added holes, 0 changed sides, 38 changed coefficients
 0 implications, 6966 cliques
presolved problem has 3546 variables (3546 bin, 0 int, 0 impl, 0 cont) and 7011 constraints
     20 constraints of type <knapsack>
   6925 constraints of type <setppc>
     66 constraints of type <logicor>
Presolving Time: 2.69
transformed 6/6 original solutions to the transformed problem space

 time | node  | left  |LP iter|LP it/n|mem/heur|mdpt |vars |cons |rows |cuts |sepa|confs|strbr|  dualbound   | primalbound  |  gap   | compl. 
 17.7s|     1 |     0 | 11997 |     - |  1407M |   0 |3546 |7011 |6982 |   0 |  0 |  32 |  19 |-4.675208e+04 |-4.746796e+04 |   1.53%| unknown
 18.0s|     1 |     0 | 12049 |     - |  1408M |   0 |3546 |7011 |6983 |   1 |  1 |  32 |  19 |-4.675208e+04 |-4.746796e+04 |   1.53%| unknown
 18.0s|     1 |     0 | 12049 |     - |  1408M |   0 |3546 |7011 |6975 |   1 |  1 |  32 |  19 |-4.675208e+04 |-4.746796e+04 |   1.53%| unknown
 18.2s|     1 |     0 | 12127 |     - |  1408M |   0 |3546 |7003 |6978 |   4 |  2 |  32 |  19 |-4.675208e+04 |-4.746796e+04 |   1.53%| unknown
 18.3s|     1 |     0 | 12127 |     - |  1409M |   0 |3546 |7003 |6977 |   4 |  2 |  32 |  19 |-4.675208e+04 |-4.746796e+04 |   1.53%| unknown
 18.5s|     1 |     0 | 12160 |     - |  1409M |   0 |3546 |7002 |6978 |   5 |  3 |  32 |  19 |-4.675208e+04 |-4.746796e+04 |   1.53%| unknown
 18.5s|     1 |     0 | 12160 |     - |  1409M |   0 |3546 |7002 |6975 |   5 |  3 |  32 |  19 |-4.675208e+04 |-4.746796e+04 |   1.53%| unknown
 18.7s|     1 |     0 | 12183 |     - |  1409M |   0 |3546 |6999 |6977 |   7 |  4 |  32 |  19 |-4.675208e+04 |-4.746796e+04 |   1.53%| unknown
 18.8s|     1 |     0 | 12183 |     - |  1409M |   0 |3546 |6999 |6971 |   7 |  4 |  32 |  19 |-4.675208e+04 |-4.746796e+04 |   1.53%| unknown
 21.6s|     1 |     2 | 14487 |     - |  1410M |   0 |3546 |7001 |6971 |   7 |  6 |  40 |  38 |-4.675695e+04 |-4.746796e+04 |   1.52%| unknown
*44.4s|    36 |     9 | 21577 | 481.5 |strongbr|  11 |3546 |7246 |6967 |  18 |  2 | 285 | 727 |-4.692248e+04 |-4.746581e+04 |   1.16%|  17.72%
*45.5s|    59 |    17 | 23262 | 322.4 |    LP  |  11 |3546 |7250 |6961 |  23 |  3 | 289 | 748 |-4.698104e+04 |-4.741682e+04 |   0.93%|  23.13%
*46.1s|    78 |    18 | 24131 | 255.0 |    LP  |  11 |3546 |7250 |6959 |  26 |  2 | 289 | 748 |-4.698104e+04 |-4.738354e+04 |   0.86%|  24.46%
*46.4s|    87 |    18 | 24658 | 234.7 |    LP  |  11 |3546 |7250 |6963 |  31 |  3 | 289 | 748 |-4.698941e+04 |-4.729109e+04 |   0.64%|  27.71%
 46.5s|   100 |    17 | 25044 | 208.0 |  1453M |  11 |3546 |7250 |6959 |  31 |  0 | 289 | 748 |-4.698941e+04 |-4.729109e+04 |   0.64%|  31.68%
 time | node  | left  |LP iter|LP it/n|mem/heur|mdpt |vars |cons |rows |cuts |sepa|confs|strbr|  dualbound   | primalbound  |  gap   | compl. 
*46.5s|   108 |    16 | 25237 | 194.4 |    LP  |  11 |3546 |7250 |6959 |  31 |  2 | 289 | 748 |-4.698941e+04 |-4.726515e+04 |   0.59%|  34.12%
 48.2s|   200 |     6 | 29704 | 127.3 |  1461M |  11 |3546 |7252 |6958 |  38 |  0 | 291 | 759 |-4.700841e+04 |-4.726515e+04 |   0.55%|  77.49%

SCIP Status        : problem is solved [optimal solution found]
Solving Time (sec) : 48.86
Solving Nodes      : 226 (total of 227 nodes in 2 runs)
Primal Bound       : -4.72651481256377e+04 (15 solutions)
Dual Bound         : -4.72651481256377e+04
Gap                : 0.00 %
Solve Status: optimal
Solve Time: 48.99 seconds
Objective Value: -47265.15
